p edge 40 369 10
v 3 5 6 8
v 6 4 19 22 23 29 34
v 4 3 9 12 24
v 3 13 16 40
v 2 25 39
v 4 20 33 35 36
v 3 2 18 21
v 5 14 15 30 37 38
v 6 7 11 17 26 27 28
v 4 1 10 31 32
e 1 3
e 1 4
e 1 6
e 1 8
e 1 10
e 1 12
e 1 17
e 1 18
e 1 21
e 1 23
e 1 24
e 1 25
e 1 26
e 1 27
e 1 28
e 1 29
e 1 32
e 1 34
e 1 38
e 1 39
e 1 40
e 2 3
e 2 5
e 2 8
e 2 11
e 2 18
e 2 19
e 2 20
e 2 23
e 2 31
e 2 33
e 2 34
e 2 36
e 2 40
e 3 4
e 3 6
e 3 7
e 3 9
e 3 10
e 3 16
e 3 17
e 3 20
e 3 21
e 3 22
e 3 24
e 3 26
e 3 30
e 3 31
e 3 32
e 3 35
e 3 38
e 3 39
e 4 8
e 4 9
e 4 11
e 4 12
e 4 13
e 4 14
e 4 18
e 4 20
e 4 21
e 4 24
e 4 25
e 4 28
e 4 29
e 4 30
e 4 32
e 4 33
e 4 34
e 4 38
e 4 39
e 5 6
e 5 10
e 5 11
e 5 13
e 5 14
e 5 16
e 5 17
e 5 19
e 5 21
e 5 23
e 5 26
e 5 30
e 5 31
e 5 37
e 5 38
e 5 39
e 6 8
e 6 10
e 6 11
e 6 12
e 6 14
e 6 16
e 6 17
e 6 18
e 6 23
e 6 24
e 6 32
e 6 33
e 6 34
e 6 35
e 6 36
e 6 37
e 6 38
e 6 40
e 7 8
e 7 9
e 7 13
e 7 16
e 7 18
e 7 19
e 7 20
e 7 24
e 7 25
e 7 26
e 7 27
e 7 30
e 7 33
e 7 34
e 7 39
e 8 10
e 8 11
e 8 13
e 8 14
e 8 15
e 8 16
e 8 21
e 8 23
e 8 25
e 8 30
e 8 33
e 8 36
e 8 37
e 8 38
e 8 40
e 9 12
e 9 15
e 9 16
e 9 17
e 9 18
e 9 19
e 9 20
e 9 21
e 9 22
e 9 23
e 9 24
e 9 26
e 9 31
e 9 34
e 9 35
e 9 36
e 9 37
e 9 40
e 10 11
e 10 15
e 10 16
e 10 19
e 10 21
e 10 23
e 10 24
e 10 26
e 10 27
e 10 32
e 10 34
e 10 35
e 10 37
e 11 12
e 11 16
e 11 19
e 11 20
e 11 21
e 11 29
e 11 31
e 11 32
e 11 33
e 11 37
e 11 39
e 12 13
e 12 14
e 12 16
e 12 17
e 12 19
e 12 21
e 12 22
e 12 24
e 12 30
e 12 32
e 12 35
e 12 36
e 12 38
e 12 39
e 13 15
e 13 16
e 13 17
e 13 18
e 13 20
e 13 21
e 13 24
e 13 25
e 13 26
e 13 31
e 13 32
e 13 33
e 13 34
e 13 38
e 13 39
e 14 19
e 14 20
e 14 22
e 14 24
e 14 26
e 14 29
e 14 30
e 14 32
e 14 33
e 14 35
e 14 37
e 14 40
e 15 17
e 15 18
e 15 20
e 15 22
e 15 23
e 15 24
e 15 25
e 15 26
e 15 27
e 15 28
e 15 30
e 15 32
e 15 34
e 15 38
e 16 17
e 16 19
e 16 20
e 16 21
e 16 22
e 16 23
e 16 24
e 16 25
e 16 28
e 16 32
e 16 33
e 16 37
e 16 38
e 16 39
e 17 18
e 17 21
e 17 24
e 17 25
e 17 27
e 17 34
e 17 35
e 18 19
e 18 20
e 18 23
e 18 27
e 18 28
e 18 35
e 18 36
e 18 39
e 19 21
e 19 23
e 19 25
e 19 26
e 19 27
e 19 28
e 19 31
e 19 32
e 19 33
e 19 34
e 19 35
e 19 36
e 19 37
e 19 40
e 20 22
e 20 23
e 20 28
e 20 29
e 20 30
e 20 32
e 20 34
e 20 36
e 20 37
e 20 38
e 21 22
e 21 24
e 21 26
e 21 30
e 21 32
e 21 36
e 21 37
e 21 39
e 22 23
e 22 24
e 22 25
e 22 28
e 22 31
e 22 32
e 22 35
e 22 37
e 22 39
e 23 24
e 23 26
e 23 30
e 23 31
e 23 33
e 23 35
e 23 37
e 23 39
e 24 25
e 24 39
e 25 26
e 25 29
e 25 30
e 25 31
e 25 32
e 25 33
e 25 39
e 25 40
e 26 27
e 26 29
e 26 30
e 26 31
e 26 32
e 26 35
e 26 37
e 26 38
e 27 28
e 27 31
e 27 32
e 27 35
e 27 39
e 27 40
e 28 29
e 28 30
e 28 33
e 28 35
e 28 36
e 28 39
e 29 31
e 29 32
e 29 35
e 29 37
e 29 38
e 29 39
e 29 40
e 30 31
e 30 32
e 30 37
e 30 40
e 31 34
e 31 37
e 32 36
e 32 37
e 32 39
e 32 40
e 33 36
e 33 37
e 34 39
e 34 40
e 35 36
e 35 37
e 35 40
e 36 37
e 37 38
e 37 39
e 38 39
e 38 40
